 Code  2131
 Dimension, Fixed Cost
   100        3000
 Facility, Client, Transportation Cost
     1        4           0
     1        8           4
     1       27           1
     1       33           4
     1       36           4
     1       39           2
     1       59           1
     1       65           2
     1       82           3
     1      100           2
     2        3           3
     2       21           2
     2       28           4
     2       30           0
     2       31           4
     2       45           3
     2       47           1
     2       66           1
     2       89           4
     2       98           0
     3       15           0
     3       29           4
     3       32           0
     3       33           4
     3       39           1
     3       41           3
     3       51           3
     3       52           1
     3       66           0
     3       69           4
     4        4           0
     4       23           2
     4       38           4
     4       49           2
     4       57           3
     4       69           3
     4       75           0
     4       80           2
     4       89           2
     4       97           2
     5        5           4
     5       13           2
     5       39           2
     5       41           0
     5       56           1
     5       57           3
     5       63           0
     5       85           0
     5       92           2
     5       93           1
     6       13           2
     6       21           1
     6       30           0
     6       39           2
     6       42           4
     6       63           4
     6       69           0
     6       91           3
     6       93           0
     6       97           4
     7       35           3
     7       37           0
     7       40           4
     7       43           0
     7       59           2
     7       63           0
     7       83           1
     7       86           2
     7       96           2
     7       99           3
     8       11           4
     8       13           2
     8       41           3
     8       45           2
     8       50           4
     8       65           3
     8       66           3
     8       67           1
     8       79           1
     8       80           2
     9        4           1
     9       24           0
     9       25           1
     9       29           0
     9       49           2
     9       56           4
     9       60           0
     9       76           0
     9       81           4
     9       99           4
    10        6           2
    10       25           0
    10       26           0
    10       68           3
    10       70           1
    10       73           4
    10       78           4
    10       87           1
    10       95           3
    10       98           4
    11        9           0
    11       17           0
    11       31           3
    11       34           2
    11       35           2
    11       50           2
    11       67           1
    11       88           2
    11       93           0
    11       94           3
    12        6           0
    12       11           4
    12       39           3
    12       51           0
    12       66           2
    12       74           0
    12       76           3
    12       78           1
    12       90           0
    12       95           1
    13        2           0
    13        5           1
    13        9           0
    13       14           1
    13       21           3
    13       34           4
    13       41           4
    13       55           2
    13       63           4
    13       96           2
    14       15           1
    14       16           3
    14       19           2
    14       24           3
    14       47           3
    14       48           0
    14       55           3
    14       62           1
    14       70           3
    14       71           2
    15       28           3
    15       58           0
    15       67           1
    15       68           4
    15       74           2
    15       78           3
    15       82           4
    15       90           0
    15       94           0
    15       99           3
    16       19           3
    16       22           1
    16       29           3
    16       44           1
    16       56           0
    16       63           0
    16       76           2
    16       81           0
    16       92           4
    16       95           3
    17        1           2
    17        3           0
    17        8           1
    17       16           4
    17       24           1
    17       42           1
    17       57           0
    17       63           1
    17       77           2
    17       94           3
    18        5           0
    18        8           2
    18       15           1
    18       22           2
    18       76           4
    18       78           1
    18       86           1
    18       89           4
    18       97           2
    18      100           1
    19        4           2
    19       10           2
    19       16           3
    19       19           1
    19       40           4
    19       41           3
    19       52           0
    19       53           2
    19       75           1
    19      100           4
    20       34           2
    20       41           1
    20       57           3
    20       62           1
    20       72           4
    20       74           2
    20       76           0
    20       88           3
    20       93           3
    20       97           0
    21        1           3
    21       27           4
    21       42           4
    21       46           2
    21       62           3
    21       67           2
    21       77           1
    21       87           1
    21       98           3
    21      100           2
    22        1           3
    22        9           3
    22       31           1
    22       37           3
    22       38           4
    22       42           1
    22       51           2
    22       66           1
    22       90           2
    22       99           2
    23        9           2
    23       11           2
    23       13           4
    23       34           3
    23       57           4
    23       58           1
    23       81           1
    23       83           1
    23       91           2
    23       94           4
    24       10           4
    24       25           4
    24       30           3
    24       53           0
    24       60           1
    24       65           1
    24       71           0
    24       88           2
    24       97           2
    24      100           1
    25        2           1
    25       13           0
    25       30           2
    25       41           3
    25       60           2
    25       68           3
    25       72           3
    25       81           4
    25       98           4
    25       99           4
    26       19           1
    26       22           1
    26       25           0
    26       61           3
    26       63           1
    26       76           0
    26       85           2
    26       91           4
    26       95           3
    26       99           1
    27       22           4
    27       24           4
    27       28           2
    27       31           1
    27       36           3
    27       49           4
    27       53           2
    27       71           4
    27       74           2
    27       79           3
    28       15           0
    28       16           4
    28       29           3
    28       30           3
    28       32           3
    28       45           3
    28       59           0
    28       78           1
    28       80           3
    28       95           0
    29        3           0
    29       17           1
    29       20           1
    29       29           3
    29       33           3
    29       49           3
    29       58           3
    29       67           4
    29       74           2
    29       92           1
    30        5           0
    30       17           0
    30       24           0
    30       26           3
    30       35           2
    30       45           1
    30       80           0
    30       81           3
    30       87           1
    30       98           1
    31       26           3
    31       27           1
    31       32           3
    31       35           3
    31       37           0
    31       42           1
    31       54           4
    31       68           1
    31       74           1
    31       86           4
    32       24           3
    32       26           1
    32       28           3
    32       30           4
    32       52           2
    32       56           2
    32       61           3
    32       78           4
    32       80           0
    32       90           2
    33       17           1
    33       20           4
    33       21           3
    33       46           4
    33       53           4
    33       64           1
    33       77           3
    33       83           4
    33       92           3
    33       93           1
    34       27           2
    34       28           2
    34       30           0
    34       41           3
    34       63           4
    34       80           4
    34       89           2
    34       90           1
    34       97           1
    34      100           3
    35        3           2
    35       19           4
    35       43           1
    35       45           4
    35       47           4
    35       57           1
    35       62           0
    35       63           2
    35       71           2
    35       98           1
    36        7           1
    36       16           4
    36       27           3
    36       31           1
    36       39           4
    36       47           3
    36       58           0
    36       68           2
    36       90           0
    36       92           3
    37        5           1
    37       15           2
    37       36           0
    37       43           4
    37       50           0
    37       66           4
    37       74           1
    37       86           1
    37       90           4
    37       93           4
    38        2           3
    38       10           1
    38       16           1
    38       46           3
    38       55           3
    38       59           4
    38       66           4
    38       78           2
    38       88           1
    38       97           3
    39        4           4
    39        7           3
    39        9           3
    39       30           1
    39       45           4
    39       48           0
    39       50           0
    39       61           1
    39       66           0
    39       78           3
    40        3           1
    40       11           1
    40       18           1
    40       23           2
    40       24           3
    40       34           4
    40       45           2
    40       64           2
    40       85           3
    40       88           2
    41        1           2
    41        4           4
    41       17           3
    41       19           1
    41       25           0
    41       30           1
    41       46           1
    41       52           4
    41       92           4
    41       96           4
    42       21           1
    42       23           3
    42       27           4
    42       28           2
    42       53           2
    42       71           1
    42       74           0
    42       82           4
    42       95           1
    42       99           0
    43        3           2
    43        5           2
    43        8           4
    43       23           3
    43       29           2
    43       36           0
    43       39           3
    43       45           3
    43       71           2
    43       99           4
    44        4           2
    44        8           4
    44       16           2
    44       22           0
    44       26           1
    44       27           2
    44       46           1
    44       47           1
    44       48           3
    44       69           1
    45       17           3
    45       19           1
    45       24           0
    45       29           2
    45       53           1
    45       54           4
    45       58           1
    45       74           2
    45       82           2
    45       91           2
    46       27           0
    46       29           4
    46       38           1
    46       49           0
    46       50           0
    46       68           1
    46       72           4
    46       75           4
    46       81           0
    46       89           3
    47        6           4
    47       16           4
    47       18           2
    47       45           0
    47       55           2
    47       57           1
    47       61           1
    47       64           3
    47       73           0
    47       79           2
    48        1           0
    48        4           0
    48        8           2
    48       16           2
    48       28           0
    48       39           0
    48       51           3
    48       55           4
    48       81           3
    48       99           4
    49       26           3
    49       27           2
    49       34           1
    49       42           1
    49       43           2
    49       44           4
    49       55           3
    49       62           1
    49       87           1
    49       89           2
    50        8           3
    50       11           1
    50       33           3
    50       37           1
    50       50           3
    50       54           3
    50       56           2
    50       84           1
    50       95           0
    50      100           2
    51       13           4
    51       33           4
    51       38           3
    51       40           1
    51       44           0
    51       47           0
    51       51           4
    51       68           2
    51       76           3
    51       86           2
    52       20           1
    52       33           2
    52       52           4
    52       53           3
    52       54           3
    52       77           0
    52       82           3
    52       84           1
    52       95           0
    52      100           3
    53        6           4
    53       15           2
    53       34           1
    53       35           0
    53       39           1
    53       56           4
    53       61           1
    53       71           0
    53       80           4
    53       96           3
    54       15           4
    54       20           2
    54       39           4
    54       43           0
    54       44           0
    54       46           0
    54       59           3
    54       66           0
    54       75           1
    54       84           3
    55       16           1
    55       18           3
    55       19           4
    55       20           0
    55       49           3
    55       59           0
    55       64           0
    55       70           2
    55       77           0
    55       83           0
    56       11           0
    56       13           3
    56       29           0
    56       36           0
    56       38           4
    56       61           1
    56       65           0
    56       80           4
    56       96           1
    56       97           0
    57       45           3
    57       64           2
    57       67           3
    57       75           4
    57       78           2
    57       79           3
    57       85           0
    57       88           4
    57       92           3
    57       96           1
    58        2           1
    58        5           3
    58       14           0
    58       24           1
    58       39           2
    58       50           3
    58       55           4
    58       72           0
    58       74           4
    58       95           0
    59        6           2
    59       21           1
    59       39           4
    59       42           4
    59       66           4
    59       80           0
    59       90           3
    59       92           0
    59       93           1
    59      100           4
    60        7           0
    60       16           0
    60       21           0
    60       32           3
    60       45           0
    60       53           0
    60       58           1
    60       64           4
    60       80           1
    60       91           2
    61       10           0
    61       12           0
    61       16           4
    61       19           0
    61       22           2
    61       33           2
    61       38           1
    61       45           2
    61       67           4
    61      100           4
    62        2           0
    62       15           1
    62       21           4
    62       27           1
    62       39           4
    62       49           4
    62       75           3
    62       77           2
    62       87           1
    62       90           1
    63        4           0
    63        8           0
    63       42           1
    63       44           2
    63       51           2
    63       53           3
    63       57           1
    63       60           4
    63       65           3
    63       68           4
    64       13           0
    64       23           3
    64       30           3
    64       37           1
    64       38           4
    64       53           3
    64       56           0
    64       70           4
    64       72           4
    64       86           1
    65        2           3
    65       10           0
    65       18           4
    65       41           3
    65       45           1
    65       51           1
    65       55           3
    65       58           3
    65       87           0
    65       90           0
    66        1           1
    66        3           2
    66       11           2
    66       17           4
    66       26           1
    66       32           2
    66       48           3
    66       56           4
    66       73           4
    66       78           0
    67       20           1
    67       21           4
    67       22           3
    67       24           2
    67       35           1
    67       39           4
    67       75           2
    67       79           1
    67       80           3
    67       91           4
    68        6           4
    68       44           3
    68       56           3
    68       59           1
    68       61           3
    68       62           2
    68       72           4
    68       88           3
    68       91           0
    68       97           4
    69       10           1
    69       11           2
    69       18           3
    69       29           4
    69       39           3
    69       46           0
    69       67           3
    69       90           0
    69       91           4
    69       95           4
    70        6           4
    70       10           0
    70       20           3
    70       26           0
    70       31           3
    70       48           0
    70       53           0
    70       62           1
    70       83           3
    70       87           0
    71       11           2
    71       42           2
    71       46           0
    71       67           0
    71       70           0
    71       79           1
    71       89           1
    71       91           0
    71       96           2
    71       99           4
    72        3           3
    72       10           4
    72       18           4
    72       24           2
    72       53           1
    72       59           3
    72       65           4
    72       83           2
    72       90           0
    72      100           2
    73       43           0
    73       49           4
    73       50           0
    73       51           4
    73       63           4
    73       64           1
    73       68           4
    73       82           1
    73       84           0
    73       96           3
    74       10           4
    74       21           4
    74       29           3
    74       36           0
    74       37           1
    74       60           2
    74       61           4
    74       73           1
    74       81           1
    74       83           0
    75       11           1
    75       19           1
    75       26           0
    75       39           3
    75       62           1
    75       66           3
    75       79           4
    75       82           1
    75       87           2
    75       93           1
    76        2           1
    76       10           0
    76       19           0
    76       36           2
    76       44           3
    76       59           1
    76       63           2
    76       80           2
    76       84           2
    76       97           1
    77        5           3
    77       29           1
    77       38           1
    77       48           0
    77       50           2
    77       55           1
    77       62           0
    77       89           1
    77       92           1
    77       96           4
    78       14           3
    78       15           0
    78       18           3
    78       22           1
    78       24           0
    78       45           2
    78       47           0
    78       74           3
    78       75           4
    78       99           3
    79        7           3
    79       10           1
    79       19           1
    79       31           1
    79       56           4
    79       60           3
    79       63           3
    79       64           4
    79       87           3
    79       98           4
    80       11           3
    80       19           0
    80       36           0
    80       42           4
    80       54           2
    80       81           3
    80       84           3
    80       85           1
    80       91           0
    80       96           3
    81        3           2
    81        6           0
    81       18           2
    81       54           2
    81       57           2
    81       59           2
    81       62           2
    81       81           2
    81       84           4
    81       99           0
    82        4           3
    82        9           1
    82       12           0
    82       24           0
    82       38           1
    82       86           1
    82       89           4
    82       94           1
    82       96           2
    82       97           1
    83        3           4
    83        5           0
    83        8           3
    83       16           2
    83       18           4
    83       24           0
    83       31           2
    83       39           0
    83       42           1
    83       81           2
    84       17           4
    84       21           3
    84       24           0
    84       53           2
    84       58           0
    84       63           1
    84       65           0
    84       66           0
    84       76           1
    84       92           1
    85        2           4
    85       15           0
    85       19           2
    85       24           0
    85       41           0
    85       49           1
    85       53           0
    85       73           4
    85       77           0
    85       87           4
    86       10           3
    86       13           1
    86       28           2
    86       44           0
    86       47           1
    86       65           1
    86       67           3
    86       70           0
    86       76           2
    86       80           3
    87        9           0
    87       12           1
    87       14           4
    87       41           3
    87       44           0
    87       63           2
    87       73           3
    87       74           3
    87       88           0
    87      100           0
    88        2           1
    88        8           0
    88       25           2
    88       33           2
    88       35           2
    88       42           0
    88       47           1
    88       67           1
    88       81           4
    88       91           3
    89        7           3
    89       20           3
    89       26           1
    89       30           4
    89       35           0
    89       47           2
    89       52           3
    89       60           4
    89       64           0
    89       72           1
    90       17           4
    90       21           3
    90       31           3
    90       36           1
    90       42           0
    90       54           1
    90       65           3
    90       67           4
    90       85           3
    90       92           2
    91        9           4
    91       20           0
    91       31           4
    91       41           1
    91       45           0
    91       72           0
    91       73           3
    91       81           4
    91       84           2
    91       99           0
    92       10           2
    92       13           3
    92       15           1
    92       40           4
    92       52           3
    92       54           0
    92       57           0
    92       63           2
    92       64           3
    92       98           2
    93       15           0
    93       16           2
    93       17           2
    93       23           4
    93       58           1
    93       72           4
    93       73           0
    93       81           3
    93       89           0
    93       96           0
    94       11           1
    94       12           1
    94       22           3
    94       26           3
    94       27           1
    94       28           3
    94       33           2
    94       64           2
    94       86           1
    94       91           1
    95       14           1
    95       33           4
    95       42           0
    95       58           0
    95       62           1
    95       69           1
    95       80           1
    95       83           0
    95       91           3
    95      100           4
    96       22           2
    96       33           1
    96       36           1
    96       37           2
    96       71           1
    96       74           0
    96       84           1
    96       91           1
    96       94           4
    96      100           2
    97       12           3
    97       14           1
    97       31           2
    97       65           1
    97       79           2
    97       82           0
    97       91           0
    97       95           0
    97       96           2
    97      100           0
    98        1           2
    98        9           3
    98       11           3
    98       14           4
    98       19           2
    98       51           0
    98       58           4
    98       67           0
    98       68           1
    98       95           4
    99        3           2
    99        6           4
    99       38           3
    99       47           1
    99       73           3
    99       76           0
    99       79           0
    99       86           1
    99       88           4
    99      100           3
   100        9           1
   100       21           4
   100       37           1
   100       42           2
   100       44           1
   100       46           1
   100       83           0
   100       95           2
   100       96           3
   100      100           0
